# Solution for model r10_t18_m6_2
# Finished Task: 18 / 18
# Makespan: 404.0, Total Distance: 831.0, Total Time: 0.0871
# R O S F
0 0 13 0.0 0.0
1 1 20 0.0 0.0
2 2 10 0.0 0.0
3 3 16 0.0 0.0
4 4 12 0.0 0.0
5 5 17 0.0 0.0
6 6 26 0.0 0.0
7 7 23 0.0 0.0
8 8 -1 0.0 0.0
9 9 24 0.0 0.0
10 2 18 206.0 237.0
11 5 -1 368.0 391.0
12 4 19 57.0 82.0
13 0 -1 331.0 368.0
14 4 -1 379.0 404.0
15 1 -1 349.0 386.0
16 3 25 137.0 176.0
17 5 21 57.0 84.0
18 2 -1 320.0 345.0
19 4 22 215.0 237.0
20 1 15 182.0 208.0
21 5 11 138.0 169.0
22 4 14 260.0 284.0
23 7 -1 205.0 227.0
24 9 -1 84.0 106.0
25 3 -1 350.0 386.0
26 6 27 67.0 98.0
27 6 -1 208.0 234.0
